SECTION Graph
Nodes 278
Edges 478
E 1 2 5
E 2 3 5
E 3 4 5
E 4 5 5
E 5 6 5
E 6 7 5
E 2 9 13
E 3 10 13
E 4 11 13
E 5 12 13
E 6 13 13
E 7 14 13
E 8 9 5
E 9 10 5
E 10 11 5
E 11 12 5
E 12 13 5
E 13 14 5
E 8 15 13
E 9 16 13
E 10 17 13
E 11 18 13
E 12 19 13
E 13 20 13
E 14 21 13
E 15 16 5
E 16 17 5
E 17 18 5
E 18 19 5
E 19 20 5
E 20 21 5
E 15 22 13
E 16 23 13
E 19 26 13
E 20 27 13
E 21 28 13
E 22 23 5
E 23 24 5
E 24 25 5
E 25 26 5
E 26 27 5
E 27 28 5
E 23 30 13
E 24 31 13
E 26 32 13
E 27 33 13
E 28 34 13
E 29 30 5
E 30 31 5
E 32 33 5
E 33 34 5
E 29 35 13
E 30 36 13
E 31 37 13
E 32 38 13
E 33 39 13
E 34 40 13
E 35 36 5
E 36 37 5
E 38 39 5
E 39 40 5
E 35 41 13
E 36 42 13
E 37 43 13
E 38 45 13
E 39 46 13
E 40 47 13
E 41 42 5
E 42 43 5
E 43 44 5
E 44 45 5
E 45 46 5
E 46 47 5
E 41 48 13
E 42 49 13
E 43 50 13
E 44 51 13
E 45 52 13
E 46 53 13
E 47 54 13
E 48 49 5
E 49 50 5
E 50 51 5
E 51 52 5
E 52 53 5
E 53 54 5
E 48 55 13
E 50 57 13
E 51 58 13
E 52 59 13
E 55 56 5
E 56 57 5
E 57 58 5
E 58 59 5
E 59 60 5
E 60 61 5
E 55 62 13
E 56 63 13
E 57 64 13
E 58 65 13
E 59 66 13
E 60 67 13
E 61 68 13
E 62 63 5
E 63 64 5
E 64 65 5
E 65 66 5
E 66 67 5
E 67 68 5
E 62 69 13
E 63 70 13
E 64 71 13
E 65 72 13
E 66 73 13
E 69 70 5
E 70 71 5
E 71 72 5
E 72 73 5
E 73 74 5
E 74 75 5
E 69 76 13
E 70 77 13
E 71 78 13
E 72 79 13
E 74 81 13
E 76 77 5
E 77 78 5
E 78 79 5
E 79 80 5
E 80 81 5
E 81 82 5
E 77 84 13
E 78 85 13
E 79 86 13
E 80 87 13
E 81 88 13
E 82 89 13
E 83 84 5
E 84 85 5
E 85 86 5
E 86 87 5
E 87 88 5
E 88 89 5
E 83 90 13
E 84 91 13
E 85 92 13
E 87 94 13
E 88 95 13
E 89 96 13
E 90 91 5
E 91 92 5
E 92 93 5
E 93 94 5
E 94 95 5
E 95 96 5
E 90 97 13
E 91 98 13
E 92 99 13
E 93 100 13
E 94 101 13
E 95 102 13
E 96 103 13
E 97 98 5
E 98 99 5
E 99 100 5
E 100 101 5
E 101 102 5
E 102 103 5
E 97 104 13
E 98 105 13
E 99 106 13
E 100 107 13
E 101 108 13
E 102 109 13
E 103 110 13
E 104 105 5
E 105 106 5
E 106 107 5
E 107 108 5
E 108 109 5
E 109 110 5
E 104 111 13
E 105 112 13
E 106 113 13
E 107 114 13
E 108 115 13
E 109 116 13
E 110 117 13
E 111 112 5
E 112 113 5
E 113 114 5
E 114 115 5
E 115 116 5
E 116 117 5
E 111 118 13
E 114 121 13
E 115 122 13
E 116 123 13
E 117 124 13
E 118 119 5
E 119 120 5
E 120 121 5
E 121 122 5
E 122 123 5
E 123 124 5
E 118 125 13
E 119 126 13
E 120 127 13
E 121 128 13
E 122 129 13
E 123 130 13
E 124 131 13
E 125 126 5
E 126 127 5
E 127 128 5
E 128 129 5
E 129 130 5
E 130 131 5
E 125 132 13
E 126 133 13
E 127 134 13
E 128 135 13
E 129 136 13
E 130 137 13
E 131 138 13
E 132 133 5
E 133 134 5
E 134 135 5
E 135 136 5
E 136 137 5
E 137 138 5
E 133 140 13
E 134 141 13
E 135 142 13
E 136 143 13
E 137 144 13
E 138 145 13
E 139 140 5
E 140 141 5
E 141 142 5
E 142 143 5
E 143 144 5
E 144 145 5
E 140 147 13
E 141 148 13
E 142 149 13
E 143 150 13
E 144 151 13
E 145 152 13
E 146 147 5
E 147 148 5
E 148 149 5
E 149 150 5
E 150 151 5
E 151 152 5
E 146 153 13
E 147 154 13
E 148 155 13
E 149 156 13
E 152 159 13
E 153 154 5
E 154 155 5
E 155 156 5
E 156 157 5
E 157 158 5
E 158 159 5
E 153 160 13
E 154 161 13
E 155 162 13
E 156 163 13
E 157 164 13
E 158 165 13
E 159 166 13
E 160 161 5
E 161 162 5
E 162 163 5
E 163 164 5
E 164 165 5
E 165 166 5
E 160 167 13
E 162 169 13
E 163 170 13
E 164 171 13
E 165 172 13
E 166 173 13
E 167 168 5
E 168 169 5
E 169 170 5
E 170 171 5
E 171 172 5
E 172 173 5
E 167 174 13
E 168 175 13
E 169 176 13
E 170 177 13
E 171 178 13
E 172 179 13
E 173 180 13
E 174 175 5
E 175 176 5
E 176 177 5
E 177 178 5
E 178 179 5
E 179 180 5
E 176 183 13
E 177 184 13
E 178 185 13
E 179 186 13
E 180 187 13
E 181 182 5
E 182 183 5
E 183 184 5
E 184 185 5
E 185 186 5
E 186 187 5
E 181 188 13
E 182 189 13
E 183 190 13
E 184 191 13
E 185 192 13
E 186 193 13
E 187 194 13
E 188 189 5
E 189 190 5
E 190 191 5
E 191 192 5
E 192 193 5
E 193 194 5
E 188 195 13
E 189 196 13
E 190 197 13
E 191 198 13
E 192 199 13
E 193 200 13
E 194 201 13
E 195 196 5
E 196 197 5
E 197 198 5
E 198 199 5
E 199 200 5
E 200 201 5
E 195 202 13
E 196 203 13
E 197 204 13
E 198 205 13
E 199 206 13
E 200 207 13
E 201 208 13
E 202 203 5
E 203 204 5
E 204 205 5
E 205 206 5
E 206 207 5
E 207 208 5
E 202 209 13
E 203 210 13
E 204 211 13
E 205 212 13
E 206 213 13
E 207 214 13
E 208 215 13
E 209 210 5
E 210 211 5
E 211 212 5
E 212 213 5
E 213 214 5
E 214 215 5
E 209 216 13
E 210 217 13
E 211 218 13
E 212 219 13
E 213 220 13
E 214 221 13
E 215 222 13
E 216 217 5
E 217 218 5
E 218 219 5
E 219 220 5
E 220 221 5
E 221 222 5
E 216 223 13
E 217 224 13
E 218 225 13
E 221 228 13
E 222 229 13
E 223 224 5
E 224 225 5
E 225 226 5
E 226 227 5
E 227 228 5
E 228 229 5
E 223 230 13
E 224 231 13
E 225 232 13
E 226 233 13
E 227 234 13
E 228 235 13
E 229 236 13
E 230 231 5
E 231 232 5
E 232 233 5
E 233 234 5
E 234 235 5
E 235 236 5
E 230 237 13
E 231 238 13
E 232 239 13
E 233 240 13
E 234 241 13
E 235 242 13
E 236 243 13
E 237 238 5
E 238 239 5
E 239 240 5
E 240 241 5
E 241 242 5
E 242 243 5
E 237 244 13
E 238 245 13
E 239 246 13
E 240 247 13
E 243 250 13
E 244 245 5
E 245 246 5
E 246 247 5
E 247 248 5
E 248 249 5
E 249 250 5
E 244 251 13
E 245 252 13
E 246 253 13
E 247 254 13
E 248 255 13
E 249 256 13
E 250 257 13
E 251 252 5
E 252 253 5
E 253 254 5
E 254 255 5
E 255 256 5
E 256 257 5
E 251 258 13
E 252 259 13
E 253 260 13
E 256 263 13
E 257 264 13
E 258 259 5
E 259 260 5
E 260 261 5
E 261 262 5
E 262 263 5
E 263 264 5
E 258 265 13
E 259 266 13
E 260 267 13
E 261 268 13
E 262 269 13
E 263 270 13
E 264 271 13
E 265 266 5
E 266 267 5
E 267 268 5
E 268 269 5
E 269 270 5
E 270 271 5
E 265 272 13
E 266 273 13
E 267 274 13
E 268 275 13
E 269 276 13
E 270 277 13
E 271 278 13
E 272 273 5
E 273 274 5
E 274 275 5
E 275 276 5
E 276 277 5
E 277 278 5
END

SECTION Terminals
Terminals 11
T 4
T 26
T 35
T 134
T 135
T 136
T 137
T 142
T 171
T 235
T 267
END

EOF
